输出/data/first_water_sampling_points.txt
# 第一个水域块采样点
# 总点数: 89
# 索引0: 起点
# 索引1: 退出点
# 索引2+: 网格采样点
# 格式: 索引 X Y

0 -370.894737 -213.000000
1 -334.200000 -213.000000
2 -368.000000 -234.600000
3 -364.000000 -234.600000
4 -360.000000 -234.600000
5 -356.000000 -234.600000
6 -372.000000 -231.200000
7 -368.000000 -231.200000
8 -364.000000 -231.200000
9 -360.000000 -231.200000
10 -356.000000 -231.200000
11 -352.000000 -231.200000
12 -348.000000 -231.200000
13 -368.000000 -227.800000
14 -364.000000 -227.800000
15 -360.000000 -227.800000
16 -356.000000 -227.800000
17 -352.000000 -227.800000
18 -348.000000 -227.800000
19 -368.000000 -224.400000
20 -364.000000 -224.400000
21 -360.000000 -224.400000
22 -356.000000 -224.400000
23 -352.000000 -224.400000
24 -348.000000 -224.400000
25 -368.000000 -221.000000
26 -364.000000 -221.000000
27 -360.000000 -221.000000
28 -356.000000 -221.000000
29 -352.000000 -221.000000
30 -348.000000 -221.000000
31 -344.000000 -221.000000
32 -368.000000 -217.600000
33 -364.000000 -217.600000
34 -360.000000 -217.600000
35 -356.000000 -217.600000
36 -352.000000 -217.600000
37 -348.000000 -217.600000
38 -344.000000 -217.600000
39 -340.000000 -217.600000
40 -368.000000 -214.200000
41 -364.000000 -214.200000
42 -360.000000 -214.200000
43 -356.000000 -214.200000
44 -352.000000 -214.200000
45 -348.000000 -214.200000
46 -344.000000 -214.200000
47 -340.000000 -214.200000
48 -336.000000 -214.200000
49 -368.000000 -210.800000
50 -364.000000 -210.800000
51 -360.000000 -210.800000
52 -356.000000 -210.800000
53 -352.000000 -210.800000
54 -348.000000 -210.800000
55 -344.000000 -210.800000
56 -340.000000 -210.800000
57 -336.000000 -210.800000
58 -368.000000 -207.400000
59 -364.000000 -207.400000
60 -360.000000 -207.400000
61 -356.000000 -207.400000
62 -352.000000 -207.400000
63 -348.000000 -207.400000
64 -344.000000 -207.400000
65 -340.000000 -207.400000
66 -336.000000 -207.400000
67 -368.000000 -204.000000
68 -364.000000 -204.000000
69 -360.000000 -204.000000
70 -356.000000 -204.000000
71 -352.000000 -204.000000
72 -348.000000 -204.000000
73 -344.000000 -204.000000
74 -340.000000 -204.000000
75 -336.000000 -204.000000
76 -368.000000 -200.600000
77 -364.000000 -200.600000
78 -360.000000 -200.600000
79 -356.000000 -200.600000
80 -352.000000 -200.600000
81 -348.000000 -200.600000
82 -344.000000 -200.600000
83 -368.000000 -197.200000
84 -364.000000 -197.200000
85 -360.000000 -197.200000
86 -356.000000 -197.200000
87 -352.000000 -197.200000
88 -348.000000 -197.200000
