data/first_water_sampling_points.tour
NAME : first_water_sampling_points.310349.tour
COMMENT : Length = 310349
COMMENT : Found by LKH-3 [Keld Helsgaun] Sun Feb  1 22:01:21 2026
TYPE : TOUR
DIMENSION : 90
TOUR_SECTION
5
6
11
17
23
29
36
44
53
62
71
80
87
88
81
72
63
54
45
37
30
24
18
12
13
19
25
31
38
46
55
64
73
82
89
83
74
65
56
47
39
32
40
48
57
66
75
76
67
58
49
2
90
1
50
41
33
26
20
14
8
7
3
4
9
15
21
27
34
42
51
60
59
68
77
84
85
86
79
78
69
70
61
52
43
35
28
22
16
10
-1
EOF
